solution status: optimal solution found
objective value:                      128698.98090816
d11(0,0)                                            1 	(obj:0)
d11(1,1)                                            1 	(obj:0)
d11(2,3)                                            1 	(obj:0)
d11(2,4)                                            1 	(obj:0)
d11(2,5)                                            1 	(obj:0)
d11(2,6)                                            1 	(obj:0)
d11(3,7)                                            1 	(obj:0)
d11(3,8)                                            1 	(obj:0)
d11(3,9)                                            1 	(obj:0)
d11(3,10)                                           1 	(obj:0)
d11(3,11)                                           1 	(obj:0)
d11(3,12)                                           1 	(obj:0)
d11(3,13)                                           1 	(obj:0)
d11(3,14)                                           1 	(obj:0)
d21(3,7)                                            1 	(obj:0)
WB(2)                                3315.65537776224 	(obj:0)
STE(1,1)                             5586.75010111118 	(obj:0)
STE(0,0)                                         7875 	(obj:0)
STE(1,2)                                         7245 	(obj:0)
STE(2,3)                             2992.50000000058 	(obj:0)
STE(2,4)                              4650.7498988894 	(obj:0)
STE(2,5)                              4650.7498988894 	(obj:0)
STE(2,6)                             6308.99979777817 	(obj:0)
STE(3,7)                             704.250101111182 	(obj:0)
STE(3,8)                                       2362.5 	(obj:0)
STE(3,9)                                       2362.5 	(obj:0)
STE(3,10)                            4020.74989888882 	(obj:0)
STE(3,11)                                      2362.5 	(obj:0)
STE(3,12)                            4020.74989888882 	(obj:0)
STE(3,13)                             4020.7498988887 	(obj:0)
STE(3,14)                            5678.99979777756 	(obj:0)
AVE(2)                               3315.65537776224 	(obj:0)
y1(1,1)                              1492.42490899994 	(obj:0)
y1(2,3)                              1767.82509099954 	(obj:0)
y1(2,4)                              275.400181999606 	(obj:0)
y1(2,5)                              1767.82509099954 	(obj:0)
y1(2,6)                              275.400181999644 	(obj:0)
y1(3,7)                              1492.42490900046 	(obj:0)
y1(3,9)                              1492.42490900046 	(obj:0)
y1(3,11)                             1492.42490900046 	(obj:0)
y1(3,13)                             1492.42490900052 	(obj:0)
AVE(3)                               3315.65799770399 	(obj:0)
WB(1)                                3248.33172520918 	(obj:0)
WG(3)                                3315.65799770399 	(obj:10)
BG(1)                                4196.29249897959 	(obj:10)
BG(2)                                4477.31309285671 	(obj:10)
BG(3)                                880.634501276109 	(obj:10)
AVE(1)                               3248.33172520918 	(obj:0)
